3	25
875	719	407	623	36	873	409	914	229	449	919	731	52	356	989	304	892	274	460	468	792	789	920	734	239	
872	216	637	852	622	511	239	330	525	121	460	353	388	320	819	751	770	399	279	642	138	683	104	357	922	
3078	3078	3078	
